<instance format="XCSP3" type="COP">
  <variables>
    <array id="emetteurs" note="Définition des variables du problème" size="[150]"> 14 28 42 56 70 84 98 112 126 140 154 168 182 196 210 224 238 252 266 280 294 308 322 336 350 364 378 392 406 420 434 448 462 476 490 504 518 532 546 560 574 588 602 616 630 644 658 672 686 700 714 728 </array>
    <array id="recepteurs" size="[150]" as="emetteurs"/>
    <array id="aux_gb" note="aux_gb[i] is the ith auxiliary variable having been automatically introduced" size="[26]">
      <domain for="aux_gb[0..1] aux_gb[10..11] aux_gb[14..15] aux_gb[18..19]"> 1..10 </domain>
      <domain for="aux_gb[2] aux_gb[3]"> 1..6 </domain>
      <domain for="aux_gb[4..7]"> 1..14 </domain>
      <domain for="aux_gb[8..9] aux_gb[20..21]"> 1..15 </domain>
      <domain for="aux_gb[12..13] aux_gb[22..23]"> 1..16 </domain>
      <domain for="aux_gb[16..17] aux_gb[24..25]"> 1..7 </domain>
    </array>
  </variables>
  <constraints>
    <group note="distance entre fréquence émettrice et réceptrice d'une station">
      <intension> eq(dist(%0,%1),238) </intension>
      <args> emetteurs[0] recepteurs[0] </args>
      <args> emetteurs[1] recepteurs[1] </args>
      <args> emetteurs[2] recepteurs[2] </args>
      <args> emetteurs[3] recepteurs[3] </args>
      <args> emetteurs[4] recepteurs[4] </args>
      <args> emetteurs[5] recepteurs[5] </args>
      <args> emetteurs[6] recepteurs[6] </args>
      <args> emetteurs[7] recepteurs[7] </args>
      <args> emetteurs[8] recepteurs[8] </args>
      <args> emetteurs[9] recepteurs[9] </args>
      <args> emetteurs[10] recepteurs[10] </args>
      <args> emetteurs[11] recepteurs[11] </args>
      <args> emetteurs[12] recepteurs[12] </args>
      <args> emetteurs[13] recepteurs[13] </args>
      <args> emetteurs[14] recepteurs[14] </args>
      <args> emetteurs[15] recepteurs[15] </args>
      <args> emetteurs[16] recepteurs[16] </args>
      <args> emetteurs[17] recepteurs[17] </args>
      <args> emetteurs[18] recepteurs[18] </args>
      <args> emetteurs[19] recepteurs[19] </args>
      <args> emetteurs[20] recepteurs[20] </args>
      <args> emetteurs[21] recepteurs[21] </args>
      <args> emetteurs[22] recepteurs[22] </args>
      <args> emetteurs[23] recepteurs[23] </args>
      <args> emetteurs[24] recepteurs[24] </args>
      <args> emetteurs[25] recepteurs[25] </args>
      <args> emetteurs[26] recepteurs[26] </args>
      <args> emetteurs[27] recepteurs[27] </args>
      <args> emetteurs[28] recepteurs[28] </args>
      <args> emetteurs[29] recepteurs[29] </args>
      <args> emetteurs[30] recepteurs[30] </args>
      <args> emetteurs[31] recepteurs[31] </args>
      <args> emetteurs[32] recepteurs[32] </args>
      <args> emetteurs[33] recepteurs[33] </args>
      <args> emetteurs[34] recepteurs[34] </args>
      <args> emetteurs[35] recepteurs[35] </args>
      <args> emetteurs[36] recepteurs[36] </args>
      <args> emetteurs[37] recepteurs[37] </args>
      <args> emetteurs[38] recepteurs[38] </args>
      <args> emetteurs[39] recepteurs[39] </args>
      <args> emetteurs[40] recepteurs[40] </args>
      <args> emetteurs[41] recepteurs[41] </args>
      <args> emetteurs[42] recepteurs[42] </args>
      <args> emetteurs[43] recepteurs[43] </args>
      <args> emetteurs[44] recepteurs[44] </args>
      <args> emetteurs[45] recepteurs[45] </args>
      <args> emetteurs[46] recepteurs[46] </args>
      <args> emetteurs[47] recepteurs[47] </args>
      <args> emetteurs[48] recepteurs[48] </args>
      <args> emetteurs[49] recepteurs[49] </args>
      <args> emetteurs[50] recepteurs[50] </args>
      <args> emetteurs[51] recepteurs[51] </args>
      <args> emetteurs[52] recepteurs[52] </args>
      <args> emetteurs[53] recepteurs[53] </args>
      <args> emetteurs[54] recepteurs[54] </args>
      <args> emetteurs[55] recepteurs[55] </args>
      <args> emetteurs[56] recepteurs[56] </args>
      <args> emetteurs[57] recepteurs[57] </args>
      <args> emetteurs[58] recepteurs[58] </args>
      <args> emetteurs[59] recepteurs[59] </args>
      <args> emetteurs[60] recepteurs[60] </args>
      <args> emetteurs[61] recepteurs[61] </args>
      <args> emetteurs[62] recepteurs[62] </args>
      <args> emetteurs[63] recepteurs[63] </args>
      <args> emetteurs[64] recepteurs[64] </args>
      <args> emetteurs[65] recepteurs[65] </args>
      <args> emetteurs[66] recepteurs[66] </args>
      <args> emetteurs[67] recepteurs[67] </args>
      <args> emetteurs[68] recepteurs[68] </args>
      <args> emetteurs[69] recepteurs[69] </args>
      <args> emetteurs[70] recepteurs[70] </args>
      <args> emetteurs[71] recepteurs[71] </args>
      <args> emetteurs[72] recepteurs[72] </args>
      <args> emetteurs[73] recepteurs[73] </args>
      <args> emetteurs[74] recepteurs[74] </args>
      <args> emetteurs[75] recepteurs[75] </args>
      <args> emetteurs[76] recepteurs[76] </args>
      <args> emetteurs[77] recepteurs[77] </args>
      <args> emetteurs[78] recepteurs[78] </args>
      <args> emetteurs[79] recepteurs[79] </args>
      <args> emetteurs[80] recepteurs[80] </args>
      <args> emetteurs[81] recepteurs[81] </args>
      <args> emetteurs[82] recepteurs[82] </args>
      <args> emetteurs[83] recepteurs[83] </args>
      <args> emetteurs[84] recepteurs[84] </args>
      <args> emetteurs[85] recepteurs[85] </args>
      <args> emetteurs[86] recepteurs[86] </args>
      <args> emetteurs[87] recepteurs[87] </args>
      <args> emetteurs[88] recepteurs[88] </args>
      <args> emetteurs[89] recepteurs[89] </args>
      <args> emetteurs[90] recepteurs[90] </args>
      <args> emetteurs[91] recepteurs[91] </args>
      <args> emetteurs[92] recepteurs[92] </args>
      <args> emetteurs[93] recepteurs[93] </args>
      <args> emetteurs[94] recepteurs[94] </args>
      <args> emetteurs[95] recepteurs[95] </args>
      <args> emetteurs[96] recepteurs[96] </args>
      <args> emetteurs[97] recepteurs[97] </args>
      <args> emetteurs[98] recepteurs[98] </args>
      <args> emetteurs[99] recepteurs[99] </args>
      <args> emetteurs[100] recepteurs[100] </args>
      <args> emetteurs[101] recepteurs[101] </args>
      <args> emetteurs[102] recepteurs[102] </args>
      <args> emetteurs[103] recepteurs[103] </args>
      <args> emetteurs[104] recepteurs[104] </args>
      <args> emetteurs[105] recepteurs[105] </args>
      <args> emetteurs[106] recepteurs[106] </args>
      <args> emetteurs[107] recepteurs[107] </args>
      <args> emetteurs[108] recepteurs[108] </args>
      <args> emetteurs[109] recepteurs[109] </args>
      <args> emetteurs[110] recepteurs[110] </args>
      <args> emetteurs[111] recepteurs[111] </args>
      <args> emetteurs[112] recepteurs[112] </args>
      <args> emetteurs[113] recepteurs[113] </args>
      <args> emetteurs[114] recepteurs[114] </args>
      <args> emetteurs[115] recepteurs[115] </args>
      <args> emetteurs[116] recepteurs[116] </args>
      <args> emetteurs[117] recepteurs[117] </args>
      <args> emetteurs[118] recepteurs[118] </args>
      <args> emetteurs[119] recepteurs[119] </args>
      <args> emetteurs[120] recepteurs[120] </args>
      <args> emetteurs[121] recepteurs[121] </args>
      <args> emetteurs[122] recepteurs[122] </args>
      <args> emetteurs[123] recepteurs[123] </args>
      <args> emetteurs[124] recepteurs[124] </args>
      <args> emetteurs[125] recepteurs[125] </args>
      <args> emetteurs[126] recepteurs[126] </args>
      <args> emetteurs[127] recepteurs[127] </args>
      <args> emetteurs[128] recepteurs[128] </args>
      <args> emetteurs[129] recepteurs[129] </args>
      <args> emetteurs[130] recepteurs[130] </args>
      <args> emetteurs[131] recepteurs[131] </args>
      <args> emetteurs[132] recepteurs[132] </args>
      <args> emetteurs[133] recepteurs[133] </args>
      <args> emetteurs[134] recepteurs[134] </args>
      <args> emetteurs[135] recepteurs[135] </args>
      <args> emetteurs[136] recepteurs[136] </args>
      <args> emetteurs[137] recepteurs[137] </args>
      <args> emetteurs[138] recepteurs[138] </args>
      <args> emetteurs[139] recepteurs[139] </args>
      <args> emetteurs[140] recepteurs[140] </args>
      <args> emetteurs[141] recepteurs[141] </args>
      <args> emetteurs[142] recepteurs[142] </args>
      <args> emetteurs[143] recepteurs[143] </args>
      <args> emetteurs[144] recepteurs[144] </args>
      <args> emetteurs[145] recepteurs[145] </args>
      <args> emetteurs[146] recepteurs[146] </args>
      <args> emetteurs[147] recepteurs[147] </args>
      <args> emetteurs[148] recepteurs[148] </args>
      <args> emetteurs[149] recepteurs[149] </args>
    </group>
    <group note="distance entre fréquence de station proche">
      <intension> and(ge(dist(%0,%1),%2),ge(dist(%3,%4),%2)) </intension>
      <args> emetteurs[0] emetteurs[87] 30 recepteurs[0] recepteurs[87] </args>
      <args> emetteurs[1] emetteurs[59] 30 recepteurs[1] recepteurs[59] </args>
      <args> emetteurs[1] emetteurs[30] 40 recepteurs[1] recepteurs[30] </args>
      <args> emetteurs[1] emetteurs[46] 20 recepteurs[1] recepteurs[46] </args>
      <args> emetteurs[1] emetteurs[56] 30 recepteurs[1] recepteurs[56] </args>
      <args> emetteurs[2] emetteurs[34] 40 recepteurs[2] recepteurs[34] </args>
      <args> emetteurs[2] emetteurs[23] 40 recepteurs[2] recepteurs[23] </args>
      <args> emetteurs[2] emetteurs[68] 30 recepteurs[2] recepteurs[68] </args>
      <args> emetteurs[2] emetteurs[100] 30 recepteurs[2] recepteurs[100] </args>
      <args> emetteurs[3] emetteurs[48] 40 recepteurs[3] recepteurs[48] </args>
      <args> emetteurs[3] emetteurs[63] 40 recepteurs[3] recepteurs[63] </args>
      <args> emetteurs[3] emetteurs[8] 30 recepteurs[3] recepteurs[8] </args>
      <args> emetteurs[4] emetteurs[17] 30 recepteurs[4] recepteurs[17] </args>
      <args> emetteurs[4] emetteurs[92] 30 recepteurs[4] recepteurs[92] </args>
      <args> emetteurs[4] emetteurs[40] 20 recepteurs[4] recepteurs[40] </args>
      <args> emetteurs[4] emetteurs[18] 40 recepteurs[4] recepteurs[18] </args>
      <args> emetteurs[5] emetteurs[68] 50 recepteurs[5] recepteurs[68] </args>
      <args> emetteurs[5] emetteurs[33] 40 recepteurs[5] recepteurs[33] </args>
      <args> emetteurs[5] emetteurs[50] 50 recepteurs[5] recepteurs[50] </args>
      <args> emetteurs[5] emetteurs[61] 50 recepteurs[5] recepteurs[61] </args>
      <args> emetteurs[6] emetteurs[56] 30 recepteurs[6] recepteurs[56] </args>
      <args> emetteurs[7] emetteurs[117] 30 recepteurs[7] recepteurs[117] </args>
      <args> emetteurs[8] emetteurs[63] 50 recepteurs[8] recepteurs[63] </args>
      <args> emetteurs[9] emetteurs[136] 20 recepteurs[9] recepteurs[136] </args>
      <args> emetteurs[10] emetteurs[143] 20 recepteurs[10] recepteurs[143] </args>
      <args> emetteurs[10] emetteurs[114] 20 recepteurs[10] recepteurs[114] </args>
      <args> emetteurs[10] emetteurs[140] 20 recepteurs[10] recepteurs[140] </args>
      <args> emetteurs[11] emetteurs[13] 50 recepteurs[11] recepteurs[13] </args>
      <args> emetteurs[11] emetteurs[95] 40 recepteurs[11] recepteurs[95] </args>
      <args> emetteurs[11] emetteurs[116] 30 recepteurs[11] recepteurs[116] </args>
      <args> emetteurs[12] emetteurs[13] 30 recepteurs[12] recepteurs[13] </args>
      <args> emetteurs[12] emetteurs[106] 30 recepteurs[12] recepteurs[106] </args>
      <args> emetteurs[12] emetteurs[17] 40 recepteurs[12] recepteurs[17] </args>
      <args> emetteurs[13] emetteurs[57] 40 recepteurs[13] recepteurs[57] </args>
      <args> emetteurs[14] emetteurs[117] 40 recepteurs[14] recepteurs[117] </args>
      <args> emetteurs[14] emetteurs[146] 30 recepteurs[14] recepteurs[146] </args>
      <args> emetteurs[15] emetteurs[44] 30 recepteurs[15] recepteurs[44] </args>
      <args> emetteurs[15] emetteurs[110] 50 recepteurs[15] recepteurs[110] </args>
      <args> emetteurs[15] emetteurs[149] 40 recepteurs[15] recepteurs[149] </args>
      <args> emetteurs[15] emetteurs[120] 30 recepteurs[15] recepteurs[120] </args>
      <args> emetteurs[16] emetteurs[139] 50 recepteurs[16] recepteurs[139] </args>
      <args> emetteurs[16] emetteurs[69] 30 recepteurs[16] recepteurs[69] </args>
      <args> emetteurs[17] emetteurs[95] 40 recepteurs[17] recepteurs[95] </args>
      <args> emetteurs[17] emetteurs[116] 50 recepteurs[17] recepteurs[116] </args>
      <args> emetteurs[17] emetteurs[84] 40 recepteurs[17] recepteurs[84] </args>
      <args> emetteurs[17] emetteurs[131] 40 recepteurs[17] recepteurs[131] </args>
      <args> emetteurs[17] emetteurs[91] 40 recepteurs[17] recepteurs[91] </args>
      <args> emetteurs[17] emetteurs[92] 50 recepteurs[17] recepteurs[92] </args>
      <args> emetteurs[18] emetteurs[57] 40 recepteurs[18] recepteurs[57] </args>
      <args> emetteurs[19] emetteurs[60] 20 recepteurs[19] recepteurs[60] </args>
      <args> emetteurs[19] emetteurs[98] 40 recepteurs[19] recepteurs[98] </args>
      <args> emetteurs[20] emetteurs[98] 50 recepteurs[20] recepteurs[98] </args>
      <args> emetteurs[20] emetteurs[140] 50 recepteurs[20] recepteurs[140] </args>
      <args> emetteurs[20] emetteurs[58] 20 recepteurs[20] recepteurs[58] </args>
      <args> emetteurs[21] emetteurs[35] 30 recepteurs[21] recepteurs[35] </args>
      <args> emetteurs[22] emetteurs[130] 30 recepteurs[22] recepteurs[130] </args>
      <args> emetteurs[22] emetteurs[87] 40 recepteurs[22] recepteurs[87] </args>
      <args> emetteurs[23] emetteurs[52] 30 recepteurs[23] recepteurs[52] </args>
      <args> emetteurs[23] emetteurs[61] 40 recepteurs[23] recepteurs[61] </args>
      <args> emetteurs[24] emetteurs[78] 40 recepteurs[24] recepteurs[78] </args>
      <args> emetteurs[24] emetteurs[53] 50 recepteurs[24] recepteurs[53] </args>
      <args> emetteurs[24] emetteurs[43] 40 recepteurs[24] recepteurs[43] </args>
      <args> emetteurs[25] emetteurs[108] 50 recepteurs[25] recepteurs[108] </args>
      <args> emetteurs[26] emetteurs[74] 30 recepteurs[26] recepteurs[74] </args>
      <args> emetteurs[26] emetteurs[147] 20 recepteurs[26] recepteurs[147] </args>
      <args> emetteurs[27] emetteurs[117] 50 recepteurs[27] recepteurs[117] </args>
      <args> emetteurs[27] emetteurs[71] 30 recepteurs[27] recepteurs[71] </args>
      <args> emetteurs[28] emetteurs[63] 30 recepteurs[28] recepteurs[63] </args>
      <args> emetteurs[28] emetteurs[67] 40 recepteurs[28] recepteurs[67] </args>
      <args> emetteurs[28] emetteurs[132] 20 recepteurs[28] recepteurs[132] </args>
      <args> emetteurs[29] emetteurs[85] 40 recepteurs[29] recepteurs[85] </args>
      <args> emetteurs[30] emetteurs[80] 20 recepteurs[30] recepteurs[80] </args>
      <args> emetteurs[30] emetteurs[128] 20 recepteurs[30] recepteurs[128] </args>
      <args> emetteurs[30] emetteurs[138] 50 recepteurs[30] recepteurs[138] </args>
      <args> emetteurs[31] emetteurs[109] 40 recepteurs[31] recepteurs[109] </args>
      <args> emetteurs[31] emetteurs[142] 30 recepteurs[31] recepteurs[142] </args>
      <args> emetteurs[32] emetteurs[104] 50 recepteurs[32] recepteurs[104] </args>
      <args> emetteurs[32] emetteurs[52] 20 recepteurs[32] recepteurs[52] </args>
      <args> emetteurs[32] emetteurs[61] 20 recepteurs[32] recepteurs[61] </args>
      <args> emetteurs[33] emetteurs[34] 50 recepteurs[33] recepteurs[34] </args>
      <args> emetteurs[33] emetteurs[112] 50 recepteurs[33] recepteurs[112] </args>
      <args> emetteurs[34] emetteurs[124] 40 recepteurs[34] recepteurs[124] </args>
      <args> emetteurs[34] emetteurs[50] 40 recepteurs[34] recepteurs[50] </args>
      <args> emetteurs[34] emetteurs[61] 40 recepteurs[34] recepteurs[61] </args>
      <args> emetteurs[35] emetteurs[37] 40 recepteurs[35] recepteurs[37] </args>
      <args> emetteurs[35] emetteurs[44] 30 recepteurs[35] recepteurs[44] </args>
      <args> emetteurs[36] emetteurs[136] 20 recepteurs[36] recepteurs[136] </args>
      <args> emetteurs[36] emetteurs[122] 40 recepteurs[36] recepteurs[122] </args>
      <args> emetteurs[36] emetteurs[143] 20 recepteurs[36] recepteurs[143] </args>
      <args> emetteurs[36] emetteurs[107] 20 recepteurs[36] recepteurs[107] </args>
      <args> emetteurs[36] emetteurs[101] 30 recepteurs[36] recepteurs[101] </args>
      <args> emetteurs[37] emetteurs[90] 40 recepteurs[37] recepteurs[90] </args>
      <args> emetteurs[37] emetteurs[110] 40 recepteurs[37] recepteurs[110] </args>
      <args> emetteurs[37] emetteurs[120] 20 recepteurs[37] recepteurs[120] </args>
      <args> emetteurs[38] emetteurs[62] 30 recepteurs[38] recepteurs[62] </args>
      <args> emetteurs[38] emetteurs[56] 20 recepteurs[38] recepteurs[56] </args>
      <args> emetteurs[39] emetteurs[66] 20 recepteurs[39] recepteurs[66] </args>
      <args> emetteurs[39] emetteurs[69] 20 recepteurs[39] recepteurs[69] </args>
      <args> emetteurs[41] emetteurs[65] 20 recepteurs[41] recepteurs[65] </args>
      <args> emetteurs[42] emetteurs[90] 40 recepteurs[42] recepteurs[90] </args>
      <args> emetteurs[42] emetteurs[145] 40 recepteurs[42] recepteurs[145] </args>
      <args> emetteurs[42] emetteurs[147] 20 recepteurs[42] recepteurs[147] </args>
      <args> emetteurs[43] emetteurs[130] 50 recepteurs[43] recepteurs[130] </args>
      <args> emetteurs[43] emetteurs[54] 20 recepteurs[43] recepteurs[54] </args>
      <args> emetteurs[43] emetteurs[104] 50 recepteurs[43] recepteurs[104] </args>
      <args> emetteurs[44] emetteurs[110] 50 recepteurs[44] recepteurs[110] </args>
      <args> emetteurs[44] emetteurs[102] 50 recepteurs[44] recepteurs[102] </args>
      <args> emetteurs[45] emetteurs[100] 20 recepteurs[45] recepteurs[100] </args>
      <args> emetteurs[45] emetteurs[135] 30 recepteurs[45] recepteurs[135] </args>
      <args> emetteurs[46] emetteurs[80] 20 recepteurs[46] recepteurs[80] </args>
      <args> emetteurs[46] emetteurs[128] 30 recepteurs[46] recepteurs[128] </args>
      <args> emetteurs[46] emetteurs[56] 20 recepteurs[46] recepteurs[56] </args>
      <args> emetteurs[47] emetteurs[54] 30 recepteurs[47] recepteurs[54] </args>
      <args> emetteurs[47] emetteurs[119] 30 recepteurs[47] recepteurs[119] </args>
      <args> emetteurs[49] emetteurs[72] 50 recepteurs[49] recepteurs[72] </args>
      <args> emetteurs[50] emetteurs[68] 40 recepteurs[50] recepteurs[68] </args>
      <args> emetteurs[50] emetteurs[105] 40 recepteurs[50] recepteurs[105] </args>
      <args> emetteurs[51] emetteurs[132] 20 recepteurs[51] recepteurs[132] </args>
      <args> emetteurs[52] emetteurs[104] 30 recepteurs[52] recepteurs[104] </args>
      <args> emetteurs[52] emetteurs[105] 40 recepteurs[52] recepteurs[105] </args>
      <args> emetteurs[53] emetteurs[93] 20 recepteurs[53] recepteurs[93] </args>
      <args> emetteurs[53] emetteurs[78] 30 recepteurs[53] recepteurs[78] </args>
      <args> emetteurs[53] emetteurs[54] 40 recepteurs[53] recepteurs[54] </args>
      <args> emetteurs[53] emetteurs[119] 40 recepteurs[53] recepteurs[119] </args>
      <args> emetteurs[55] emetteurs[120] 20 recepteurs[55] recepteurs[120] </args>
      <args> emetteurs[55] emetteurs[144] 40 recepteurs[55] recepteurs[144] </args>
      <args> emetteurs[57] emetteurs[113] 20 recepteurs[57] recepteurs[113] </args>
      <args> emetteurs[57] emetteurs[66] 40 recepteurs[57] recepteurs[66] </args>
      <args> emetteurs[57] emetteurs[121] 50 recepteurs[57] recepteurs[121] </args>
      <args> emetteurs[58] emetteurs[70] 50 recepteurs[58] recepteurs[70] </args>
      <args> emetteurs[58] emetteurs[83] 20 recepteurs[58] recepteurs[83] </args>
      <args> emetteurs[59] emetteurs[86] 20 recepteurs[59] recepteurs[86] </args>
      <args> emetteurs[60] emetteurs[98] 20 recepteurs[60] recepteurs[98] </args>
      <args> emetteurs[61] emetteurs[104] 50 recepteurs[61] recepteurs[104] </args>
      <args> emetteurs[62] emetteurs[137] 20 recepteurs[62] recepteurs[137] </args>
      <args> emetteurs[62] emetteurs[97] 40 recepteurs[62] recepteurs[97] </args>
      <args> emetteurs[63] emetteurs[115] 20 recepteurs[63] recepteurs[115] </args>
      <args> emetteurs[63] emetteurs[132] 50 recepteurs[63] recepteurs[132] </args>
      <args> emetteurs[63] emetteurs[119] 40 recepteurs[63] recepteurs[119] </args>
      <args> emetteurs[64] emetteurs[121] 20 recepteurs[64] recepteurs[121] </args>
      <args> emetteurs[65] emetteurs[123] 40 recepteurs[65] recepteurs[123] </args>
      <args> emetteurs[65] emetteurs[117] 20 recepteurs[65] recepteurs[117] </args>
      <args> emetteurs[65] emetteurs[76] 20 recepteurs[65] recepteurs[76] </args>
      <args> emetteurs[66] emetteurs[116] 20 recepteurs[66] recepteurs[116] </args>
      <args> emetteurs[66] emetteurs[72] 50 recepteurs[66] recepteurs[72] </args>
      <args> emetteurs[66] emetteurs[121] 50 recepteurs[66] recepteurs[121] </args>
      <args> emetteurs[66] emetteurs[92] 50 recepteurs[66] recepteurs[92] </args>
      <args> emetteurs[68] emetteurs[118] 50 recepteurs[68] recepteurs[118] </args>
      <args> emetteurs[68] emetteurs[105] 50 recepteurs[68] recepteurs[105] </args>
      <args> emetteurs[69] emetteurs[131] 40 recepteurs[69] recepteurs[131] </args>
      <args> emetteurs[70] emetteurs[109] 50 recepteurs[70] recepteurs[109] </args>
      <args> emetteurs[70] emetteurs[98] 50 recepteurs[70] recepteurs[98] </args>
      <args> emetteurs[70] emetteurs[148] 30 recepteurs[70] recepteurs[148] </args>
      <args> emetteurs[70] emetteurs[140] 50 recepteurs[70] recepteurs[140] </args>
      <args> emetteurs[71] emetteurs[127] 30 recepteurs[71] recepteurs[127] </args>
      <args> emetteurs[72] emetteurs[113] 40 recepteurs[72] recepteurs[113] </args>
      <args> emetteurs[73] emetteurs[85] 50 recepteurs[73] recepteurs[85] </args>
      <args> emetteurs[73] emetteurs[120] 30 recepteurs[73] recepteurs[120] </args>
      <args> emetteurs[73] emetteurs[81] 30 recepteurs[73] recepteurs[81] </args>
      <args> emetteurs[74] emetteurs[90] 40 recepteurs[74] recepteurs[90] </args>
      <args> emetteurs[75] emetteurs[126] 20 recepteurs[75] recepteurs[126] </args>
      <args> emetteurs[75] emetteurs[96] 50 recepteurs[75] recepteurs[96] </args>
      <args> emetteurs[75] emetteurs[106] 30 recepteurs[75] recepteurs[106] </args>
      <args> emetteurs[76] emetteurs[99] 30 recepteurs[76] recepteurs[99] </args>
      <args> emetteurs[76] emetteurs[95] 30 recepteurs[76] recepteurs[95] </args>
      <args> emetteurs[76] emetteurs[127] 50 recepteurs[76] recepteurs[127] </args>
      <args> emetteurs[77] emetteurs[102] 20 recepteurs[77] recepteurs[102] </args>
      <args> emetteurs[77] emetteurs[147] 40 recepteurs[77] recepteurs[147] </args>
      <args> emetteurs[80] emetteurs[137] 40 recepteurs[80] recepteurs[137] </args>
      <args> emetteurs[81] emetteurs[83] 50 recepteurs[81] recepteurs[83] </args>
      <args> emetteurs[81] emetteurs[129] 30 recepteurs[81] recepteurs[129] </args>
      <args> emetteurs[82] emetteurs[133] 50 recepteurs[82] recepteurs[133] </args>
      <args> emetteurs[83] emetteurs[97] 40 recepteurs[83] recepteurs[97] </args>
      <args> emetteurs[84] emetteurs[88] 50 recepteurs[84] recepteurs[88] </args>
      <args> emetteurs[84] emetteurs[91] 30 recepteurs[84] recepteurs[91] </args>
      <args> emetteurs[84] emetteurs[92] 20 recepteurs[84] recepteurs[92] </args>
      <args> emetteurs[86] emetteurs[137] 50 recepteurs[86] recepteurs[137] </args>
      <args> emetteurs[88] emetteurs[113] 50 recepteurs[88] recepteurs[113] </args>
      <args> emetteurs[89] emetteurs[146] 30 recepteurs[89] recepteurs[146] </args>
      <args> emetteurs[90] emetteurs[120] 20 recepteurs[90] recepteurs[120] </args>
      <args> emetteurs[93] emetteurs[119] 20 recepteurs[93] recepteurs[119] </args>
      <args> emetteurs[94] emetteurs[143] 30 recepteurs[94] recepteurs[143] </args>
      <args> emetteurs[95] emetteurs[116] 30 recepteurs[95] recepteurs[116] </args>
      <args> emetteurs[95] emetteurs[106] 30 recepteurs[95] recepteurs[106] </args>
      <args> emetteurs[97] emetteurs[125] 50 recepteurs[97] recepteurs[125] </args>
      <args> emetteurs[98] emetteurs[136] 50 recepteurs[98] recepteurs[136] </args>
      <args> emetteurs[98] emetteurs[103] 50 recepteurs[98] recepteurs[103] </args>
      <args> emetteurs[99] emetteurs[123] 40 recepteurs[99] recepteurs[123] </args>
      <args> emetteurs[99] emetteurs[146] 20 recepteurs[99] recepteurs[146] </args>
      <args> emetteurs[100] emetteurs[103] 30 recepteurs[100] recepteurs[103] </args>
      <args> emetteurs[100] emetteurs[111] 50 recepteurs[100] recepteurs[111] </args>
      <args> emetteurs[101] emetteurs[107] 30 recepteurs[101] recepteurs[107] </args>
      <args> emetteurs[101] emetteurs[135] 30 recepteurs[101] recepteurs[135] </args>
      <args> emetteurs[102] emetteurs[110] 40 recepteurs[102] recepteurs[110] </args>
      <args> emetteurs[102] emetteurs[149] 30 recepteurs[102] recepteurs[149] </args>
      <args> emetteurs[103] emetteurs[109] 20 recepteurs[103] recepteurs[109] </args>
      <args> emetteurs[103] emetteurs[142] 20 recepteurs[103] recepteurs[142] </args>
      <args> emetteurs[107] emetteurs[111] 50 recepteurs[107] recepteurs[111] </args>
      <args> emetteurs[107] emetteurs[114] 20 recepteurs[107] recepteurs[114] </args>
      <args> emetteurs[108] emetteurs[139] 50 recepteurs[108] recepteurs[139] </args>
      <args> emetteurs[109] emetteurs[148] 30 recepteurs[109] recepteurs[148] </args>
      <args> emetteurs[110] emetteurs[147] 50 recepteurs[110] recepteurs[147] </args>
      <args> emetteurs[113] emetteurs[121] 30 recepteurs[113] recepteurs[121] </args>
      <args> emetteurs[114] emetteurs[122] 50 recepteurs[114] recepteurs[122] </args>
      <args> emetteurs[118] emetteurs[124] 20 recepteurs[118] recepteurs[124] </args>
      <args> emetteurs[119] emetteurs[130] 40 recepteurs[119] recepteurs[130] </args>
      <args> emetteurs[120] emetteurs[141] 30 recepteurs[120] recepteurs[141] </args>
      <args> emetteurs[120] emetteurs[140] 20 recepteurs[120] recepteurs[140] </args>
      <args> emetteurs[125] emetteurs[137] 30 recepteurs[125] recepteurs[137] </args>
      <args> emetteurs[127] emetteurs[133] 40 recepteurs[127] recepteurs[133] </args>
      <args> emetteurs[137] emetteurs[141] 30 recepteurs[137] recepteurs[141] </args>
      <args> emetteurs[142] emetteurs[148] 20 recepteurs[142] recepteurs[148] </args>
    </group>
    <group note="limiter le nombre de fréquences utilisé par station">
      <intension> le(add(%0,%1),%2) </intension>
      <args> aux_gb[0] aux_gb[1] 20 </args>
      <args> aux_gb[2] aux_gb[3] 11 </args>
      <args> aux_gb[4] aux_gb[5] 27 </args>
      <args> aux_gb[6] aux_gb[7] 27 </args>
      <args> aux_gb[8] aux_gb[9] 28 </args>
      <args> aux_gb[10] aux_gb[11] 19 </args>
      <args> aux_gb[12] aux_gb[13] 30 </args>
      <args> aux_gb[14] aux_gb[15] 19 </args>
      <args> aux_gb[16] aux_gb[17] 13 </args>
      <args> aux_gb[18] aux_gb[19] 19 </args>
      <args> aux_gb[20] aux_gb[21] 29 </args>
      <args> aux_gb[22] aux_gb[23] 30 </args>
      <args> aux_gb[24] aux_gb[25] 12 </args>
    </group>
    <group note="liaisons entre fréquences émettrices et réceptrices">
      <intension> eq(%0,%1) </intension>
      <args> emetteurs[2] recepteurs[120] </args>
      <args> emetteurs[13] recepteurs[76] </args>
      <args> emetteurs[23] recepteurs[34] </args>
      <args> emetteurs[26] recepteurs[110] </args>
      <args> emetteurs[32] recepteurs[118] </args>
      <args> emetteurs[36] recepteurs[73] </args>
      <args> emetteurs[36] recepteurs[135] </args>
      <args> emetteurs[39] recepteurs[113] </args>
      <args> emetteurs[42] recepteurs[74] </args>
      <args> emetteurs[43] recepteurs[124] </args>
      <args> emetteurs[46] recepteurs[59] </args>
      <args> emetteurs[53] recepteurs[139] </args>
      <args> emetteurs[56] recepteurs[144] </args>
      <args> emetteurs[65] recepteurs[127] </args>
      <args> emetteurs[71] recepteurs[79] </args>
      <args> emetteurs[79] recepteurs[133] </args>
      <args> emetteurs[80] recepteurs[120] </args>
      <args> emetteurs[82] recepteurs[123] </args>
      <args> emetteurs[90] recepteurs[110] </args>
      <args> emetteurs[91] recepteurs[121] </args>
      <args> emetteurs[134] recepteurs[135] </args>
    </group>
    <group>
      <intension> eq(%0,%1) </intension>
      <args> emetteurs[120] recepteurs[2] </args>
      <args> emetteurs[76] recepteurs[13] </args>
      <args> emetteurs[34] recepteurs[23] </args>
      <args> emetteurs[110] recepteurs[26] </args>
      <args> emetteurs[118] recepteurs[32] </args>
      <args> emetteurs[73] recepteurs[36] </args>
      <args> emetteurs[135] recepteurs[36] </args>
      <args> emetteurs[113] recepteurs[39] </args>
      <args> emetteurs[74] recepteurs[42] </args>
      <args> emetteurs[124] recepteurs[43] </args>
      <args> emetteurs[59] recepteurs[46] </args>
      <args> emetteurs[139] recepteurs[53] </args>
      <args> emetteurs[144] recepteurs[56] </args>
      <args> emetteurs[127] recepteurs[65] </args>
      <args> emetteurs[79] recepteurs[71] </args>
      <args> emetteurs[133] recepteurs[79] </args>
      <args> emetteurs[120] recepteurs[80] </args>
      <args> emetteurs[123] recepteurs[82] </args>
      <args> emetteurs[110] recepteurs[90] </args>
      <args> emetteurs[121] recepteurs[91] </args>
      <args> emetteurs[135] recepteurs[134] </args>
    </group>
    <group>
      <nValues>
        <list> %... </list>
        <condition> (eq,%0) </condition>
      </nValues>
      <args> aux_gb[0] emetteurs[36] emetteurs[45] emetteurs[58] emetteurs[81] emetteurs[83] emetteurs[101] emetteurs[120] emetteurs[129] emetteurs[134..135] </args>
      <args> aux_gb[1] recepteurs[36] recepteurs[45] recepteurs[58] recepteurs[81] recepteurs[83] recepteurs[101] recepteurs[120] recepteurs[129] recepteurs[134..135] </args>
      <args> aux_gb[2] emetteurs[6] emetteurs[29] emetteurs[55] emetteurs[73] emetteurs[85] emetteurs[144] </args>
      <args> aux_gb[3] recepteurs[6] recepteurs[29] recepteurs[55] recepteurs[73] recepteurs[85] recepteurs[144] </args>
      <args> aux_gb[4] emetteurs[9] emetteurs[19..20] emetteurs[31] emetteurs[60] emetteurs[70] emetteurs[98] emetteurs[100] emetteurs[103] emetteurs[109] emetteurs[136] emetteurs[140] emetteurs[142] emetteurs[148] </args>
      <args> aux_gb[5] recepteurs[9] recepteurs[19..20] recepteurs[31] recepteurs[60] recepteurs[70] recepteurs[98] recepteurs[100] recepteurs[103] recepteurs[109] recepteurs[136] recepteurs[140] recepteurs[142] recepteurs[148] </args>
      <args> aux_gb[6] emetteurs[4] emetteurs[17] emetteurs[39] emetteurs[49] emetteurs[64] emetteurs[66] emetteurs[69] emetteurs[72] emetteurs[84] emetteurs[88] emetteurs[91] emetteurs[113] emetteurs[121] emetteurs[131] </args>
      <args> aux_gb[7] recepteurs[4] recepteurs[17] recepteurs[39] recepteurs[49] recepteurs[64] recepteurs[66] recepteurs[69] recepteurs[72] recepteurs[84] recepteurs[88] recepteurs[91] recepteurs[113] recepteurs[121] recepteurs[131] </args>
      <args> aux_gb[8] emetteurs[15] emetteurs[21] emetteurs[26] emetteurs[35] emetteurs[37] emetteurs[42] emetteurs[44] emetteurs[74] emetteurs[77] emetteurs[90] emetteurs[102] emetteurs[110] emetteurs[145] emetteurs[147] emetteurs[149] </args>
      <args> aux_gb[9] recepteurs[15] recepteurs[21] recepteurs[26] recepteurs[35] recepteurs[37] recepteurs[42] recepteurs[44] recepteurs[74] recepteurs[77] recepteurs[90] recepteurs[102] recepteurs[110] recepteurs[145] recepteurs[147] recepteurs[149] </args>
      <args> aux_gb[10] emetteurs[0] emetteurs[22] emetteurs[24] emetteurs[47] emetteurs[53..54] emetteurs[78] emetteurs[87] emetteurs[93] emetteurs[130] </args>
      <args> aux_gb[11] recepteurs[0] recepteurs[22] recepteurs[24] recepteurs[47] recepteurs[53..54] recepteurs[78] recepteurs[87] recepteurs[93] recepteurs[130] </args>
      <args> aux_gb[12] emetteurs[2] emetteurs[5] emetteurs[23] emetteurs[32..34] emetteurs[43] emetteurs[50] emetteurs[52] emetteurs[61] emetteurs[68] emetteurs[104..105] emetteurs[112] emetteurs[118] emetteurs[124] </args>
      <args> aux_gb[13] recepteurs[2] recepteurs[5] recepteurs[23] recepteurs[32..34] recepteurs[43] recepteurs[50] recepteurs[52] recepteurs[61] recepteurs[68] recepteurs[104..105] recepteurs[112] recepteurs[118] recepteurs[124] </args>
      <args> aux_gb[14] emetteurs[11..13] emetteurs[57] emetteurs[75] emetteurs[95..96] emetteurs[106] emetteurs[116] emetteurs[126] </args>
      <args> aux_gb[15] recepteurs[11..13] recepteurs[57] recepteurs[75] recepteurs[95..96] recepteurs[106] recepteurs[116] recepteurs[126] </args>
      <args> aux_gb[16] emetteurs[16] emetteurs[18] emetteurs[25] emetteurs[40] emetteurs[92] emetteurs[108] emetteurs[139] </args>
      <args> aux_gb[17] recepteurs[16] recepteurs[18] recepteurs[25] recepteurs[40] recepteurs[92] recepteurs[108] recepteurs[139] </args>
      <args> aux_gb[18] emetteurs[3] emetteurs[8] emetteurs[28] emetteurs[48] emetteurs[51] emetteurs[63] emetteurs[67] emetteurs[115] emetteurs[119] emetteurs[132] </args>
      <args> aux_gb[19] recepteurs[3] recepteurs[8] recepteurs[28] recepteurs[48] recepteurs[51] recepteurs[63] recepteurs[67] recepteurs[115] recepteurs[119] recepteurs[132] </args>
      <args> aux_gb[20] emetteurs[1] emetteurs[30] emetteurs[38] emetteurs[46] emetteurs[56] emetteurs[59] emetteurs[62] emetteurs[80] emetteurs[86] emetteurs[97] emetteurs[125] emetteurs[128] emetteurs[137..138] emetteurs[141] </args>
      <args> aux_gb[21] recepteurs[1] recepteurs[30] recepteurs[38] recepteurs[46] recepteurs[56] recepteurs[59] recepteurs[62] recepteurs[80] recepteurs[86] recepteurs[97] recepteurs[125] recepteurs[128] recepteurs[137..138] recepteurs[141] </args>
      <args> aux_gb[22] emetteurs[7] emetteurs[14] emetteurs[27] emetteurs[41] emetteurs[65] emetteurs[71] emetteurs[76] emetteurs[79] emetteurs[82] emetteurs[89] emetteurs[99] emetteurs[117] emetteurs[123] emetteurs[127] emetteurs[133] emetteurs[146] </args>
      <args> aux_gb[23] recepteurs[7] recepteurs[14] recepteurs[27] recepteurs[41] recepteurs[65] recepteurs[71] recepteurs[76] recepteurs[79] recepteurs[82] recepteurs[89] recepteurs[99] recepteurs[117] recepteurs[123] recepteurs[127] recepteurs[133] recepteurs[146] </args>
      <args> aux_gb[24] emetteurs[10] emetteurs[94] emetteurs[107] emetteurs[111] emetteurs[114] emetteurs[122] emetteurs[143] </args>
      <args> aux_gb[25] recepteurs[10] recepteurs[94] recepteurs[107] recepteurs[111] recepteurs[114] recepteurs[122] recepteurs[143] </args>
    </group>
  </constraints>
  <objectives>
    <minimize type="nValues"> emetteurs[] recepteurs[] </minimize>
  </objectives>
</instance>
